  0   0   0   0   0   0   2   0   0   0   0   0   0   0   0   0   0   0   0   0   0   0   0   0   0   0   0   0   0   0   0   0   0   0   0   0   0   0   0   0   0   0   0   0   0   0   0   0   0   0   0   0   0   0   0   0   0   0   0   0   0   0   0   0   0   0   0   0   0   0   0   0   0   0   0   0   0   0   0   0   0   0   0   0   0   0   0   0   0   0   0   0   0   0   0   0   0   0   0   0   0   0   0   0   0   0   0   0   0   0   0   0   0   0   0   0   0   0   0   0   0   0   0   0   0   0   0   0   0   0   0   0   0   0   0   0   0   0   0   0   0   0   0   0   0   0   0   0   0   0   0   0   0   0   0   0   0   0   0   0   0   0   0   0   0   0   0   0   0   0   0   0   0   0   0   0   0   0   0   0   0   0   0   0   0   0   0   0   0   0   0   0   0   0   0   0   0   0   0   0   0   0   0   0   0   0   0   0   0   0   0   0   0   0   0   0   0   0   0   0   0   0   0   0   0   0   0   0   0   0   0   0   0   0   0   0   0   0   0   0   0   0   0   0   0   0   0   0   0   0   0   0   0   0   0   0   0   0   0   0   0   0   0   0   0   0   0   0   0   0   0   0   0   0   0   0   0   0   0   0   0   0   0   0   0   0   0   0   0   0   0   0   0   0   0   0   0   0   0   0   0   0   0   0   0   0   0   0   0   0   0   0   0   0   0   0   0   0   0   0   0   0   0   0   0   0   0   0   0   0   0   0   0   0   0   0   0   0   0   0   0   0   0   0   0   0   0   0   0   0   0   0   0   0   0   0   0   0   0   0   0   0   0   0   0   0   0   0   0   0   0   0   0   0   0   0   0   0   0   0   0   0   0   0   0   0   0   0   0   0   0   0   0   0   0   0   0   0   0   0   0   0   0   0   0   0   0   0   0   0   0   0   0   0   0   0   0   0   0   0   0   0   0   0   0   0   0   0   0   0   0   0   0   0   0   0   0   0   0   0   0   0   0   0   0   0   0   0   0   0   0   0   0   0   0   0   0   0   0   0   0   0   0   0   0   0   0   0   0   0   0   0   0   0   0   0   0   0   0   0   0   0   0   0   0   0   0   0   0   0   0   0   0   0   0   0   0   0   0   0   0   0   0   0   0   0   0   0   0   0   0   0   0   0   0   0   0   0   0   0   0   0   0   0   0   0   0   0   0   0   0   0   0   0   0   0   0   0   0   0   0   0   0   0   0   0   0   0   0   0   0   0   0   0   0   0   0   0   0   0   0   0   0   0   0   0   0   0   0   0   0   0   0   0   0   0   0   0   0   0   0   0   0   0   0   0   0   0   0   0   0   0   0   0   0   0   0   0   0   0   0   0   0   0   0   0   0   0   0   0   0   0   0   0   0   0   0   0   0   0   0   0   0   0   0   0   0   0   0   0   0   0   0   0   0   0   0   0   0   0   0   0   0   0   0   0   0   0   0   0   0   0   0   0   0   0   0   0   0   0   0   0   0   0   0   0   0   0   0   0   0   0   0   0   0   0   0   0   0   0   0   0   0   0   0   0   0   0   0   0   0   0   0   0   0   0   0   0   0   0   0   0   0   0   0   0   0   0   0   0   0   0   0   0   0   0   0   0   0   0   0   0   0   0   0   0   0   0   0   0   0   0   0   0   0   0   0   0   0   0   0   0   0   0   0   0   0   0   0   0   0   0   0   0   0   0   0   0   0   0   0   0   0   0   0   0   0   0   0   0   0   0   0   0   0   0   0   0   0   0   0   0   0   0   0   0   0   0   0   0   0   0   0   0   0   0   0   0   0   0   0   0   0   0   0   0   0   0   0   0   0   0   0   0   0   0   0   0   0   0   0   0   0   0   0   0   0   0   0   0   0   0   0   0   0   0   0   0   0   0   0   0   0   0   0   0   0   0   0   0   0   0   0   0   0   0   0   0   0   0   0   0   0   0   0   0   0   0   0   0   0   0   0   0   0   0   0   0   0   0   0   0   0   0   0   0   0   0   0   0   0   0   0   0   0   0   0   0   0   0   0   0   0   0   0   0   0   0   0   0   0   0   0   0   0   0   0   0   0   0   0   0   0   0   0   0   0   0   0   0   0   0   0   0   0   0   0   0   0   0   0   0   0   0   0   0   0   0   0   0   0   0   0   0   0   0   0   0   0   0   0   0   0   0   0   0   0   0   0   0   0   0   0   0   0   0   0   0   0   0   0   0   0   0   0   0   0   0   0   0   0   0   0   0   0   0   0   0   0   0 
REMAINING SPACE:      24
ACCUMULATED PRIORITY: 200
EXECUTION TIME:       0.439218700
QTY PRI VAL
[0]  95 201
[0]  92 203
[0]  93 210
[0]  94 214
[0]  90 210
[0]  90 214
[2] 100 238
[0]  90 218
[0]  90 218
[0]  85 207
[0]  95 232
[0]  90 220
[0]  93 228
[0]  92 227
[0]  96 239
[0]  89 228
[0]  93 239
[0]  88 227
[0]  84 218
[0]  96 251
[0]  83 219
[0]  94 249
[0]  84 223
[0]  85 226
[0]  92 245
[0]  87 232
[0]  83 222
[0]  93 250
[0]  77 207
[0]  87 234
[0]  83 224
[0]  85 231
[0]  91 248
[0]  81 222
[0]  93 258
[0]  80 222
[0]  82 228
[0]  91 254
[0]  96 269
[0]  81 227
[0]  92 258
[0] 100 281
[0]  87 245
[0]  84 238
[0]  97 275
[0]  85 242
[0]  95 273
[0]  72 207
[0]  89 257
[0]  87 252
[0]  97 282
[0]  97 282
[0]  82 239
[0]  97 283
[0]  94 275
[0]  72 212
[0]  76 225
[0]  76 225
[0]  92 275
[0]  92 276
[0]  69 207
[0]  82 246
[0]  99 298
[0]  91 274
[0]  71 215
[0]  98 298
[0]  85 259
[0]  87 266
[0]  96 294
[0]  96 294
[0]  78 239
[0]  67 206
[0]  74 229
[0]  83 259
[0]  93 291
[0]  92 288
[0]  70 220
[0]  94 297
[0]  70 223
[0]  80 255
[0]  63 202
[0]  94 302
[0]  83 267
[0]  68 219
[0]  78 252
[0]  90 293
[0]  97 316
[0]  62 202
[0]  76 248
[0]  97 317
[0]  70 229
[0]  70 229
[0]  73 239
[0]  70 230
[0]  72 237
[0]  94 310
[0]  69 228
[0]  85 281
[0]  71 235
[0]  93 308
[0]  67 222
[0]  68 226
[0]  98 326
[0]  84 281
[0]  80 268
[0]  88 296
[0]  81 273
[0]  97 327
[0]  72 244
[0]  73 248
[0]  82 279
[0]  88 301
[0]  80 274
[0]  76 261
[0]  91 314
[0]  71 245
[0]  95 328
[0]  72 249
[0]  93 322
[0]  70 243
[0]  95 330
[0]  71 247
[0]  70 244
[0]  96 335
[0]  98 342
[0]  59 206
[0]  61 213
[0]  80 280
[0]  90 316
[0]  91 320
[0]  96 338
[0]  80 282
[0]  79 279
[0]  97 343
[0]  98 347
[0]  81 287
[0]  83 295
[0] 100 356
[0]  86 309
[0]  78 281
[0]  68 245
[0]  63 227
[0]  76 274
[0]  97 350
[0]  65 235
[0]  91 329
[0]  94 340
[0]  88 319
[0]  57 207
[0]  60 218
[0]  95 346
[0]  96 350
[0]  86 314
[0]  66 241
[0]  69 252
[0]  76 278
[0]  63 231
[0]  58 213
[0]  84 309
[0]  63 232
[0]  79 291
[0]  80 295
[0]  95 352
[0]  91 338
[0]  77 286
[0]  56 208
[0]  98 365
[0]  73 272
[0]  81 302
[0]  65 243
[0]  85 319
[0]  81 304
[0]  98 368
[0]  96 361
[0]  80 301
[0]  62 234
[0]  82 310
[0]  94 356
[0]  81 308
[0]  83 316
[0]  84 320
[0]  92 352
[0]  99 379
[0]  64 246
[0]  61 235
[0]  92 355
[0]  88 340
[0]  87 337
[0]  66 256
[0]  93 361
[0]  92 358
[0]  91 355
[0]  71 278
[0]  74 292
[0]  65 257
[0]  78 309
[0]  82 325
[0]  73 290
[0]  71 283
[0]  91 364
[0]  79 316
[0]  59 236
[0]  95 381
[0]  87 349
[0]  77 309
[0] 100 405
[0]  72 293
[0]  78 318
[0]  93 380
[0]  69 282
[0]  67 274
[0]  95 389
[0]  64 263
[0]  73 301
[0]  81 334
[0]  98 405
[0]  90 372
[0]  67 277
[0]  55 228
[0]  95 394
[0]  94 390
[0] 100 415
[0]  86 357
[0]  65 271
[0]  87 363
[0]  94 394
[0]  51 214
[0]  61 256
[0]  65 273
[0]  73 307
[0]  60 253
[0]  84 355
[0]  66 279
[0]  83 351
[0]  75 319
[0]  82 350
[0]  92 393
[0]  70 300
[0]  84 361
[0]  78 337
[0]  77 333
[0]  74 322
[0]  64 280
[0]  48 210
[0]  89 390
[0]  65 285
[0]  88 386
[0]  75 329
[0]  82 360
[0]  64 281
[0]  46 202
[0] 100 441
[0]  88 389
[0]  75 332
[0]  71 316
[0]  77 343
[0]  57 254
[0]  92 410
[0]  74 330
[0]  93 416
[0]  59 264
[0]  45 202
[0]  92 413
[0]  57 256
[0]  84 378
[0]  67 302
[0]  64 289
[0]  98 443
[0]  63 285
[0]  99 449
[0]  63 286
[0]  75 341
[0]  62 282
[0]  81 369
[0]  95 433
[0]  68 310
[0]  73 333
[0]  93 425
[0]  97 444
[0]  78 358
[0]  63 290
[0]  99 456
[0]  92 424
[0]  78 360
[0]  60 277
[0]  57 264
[0]  80 371
[0]  59 274
[0]  90 418
[0]  82 381
[0]  43 200
[0]  84 391
[0]  85 396
[0]  71 331
[0]  63 294
[0]  70 328
[0]  51 239
[0]  82 385
[0]  86 404
[0]  83 390
[0]  91 429
[0]  86 406
[0]  44 208
[0] 100 473
[0]  72 341
[0]  93 441
[0]  94 446
[0]  63 299
[0]  67 318
[0]  52 247
[0]  84 399
[0]  66 314
[0]  54 257
[0]  71 338
[0]  54 258
[0] 100 478
[0]  73 349
[0]  83 397
[0]  90 432
[0]  90 433
[0]  59 284
[0]  50 241
[0]  80 386
[0]  76 368
[0]  60 291
[0]  74 359
[0]  96 466
[0]  98 476
[0]  93 453
[0]  70 341
[0]  55 268
[0]  64 312
[0]  99 483
[0]  92 449
[0]  84 411
[0]  60 294
[0]  92 451
[0]  74 363
[0]  80 393
[0]  61 300
[0]  78 384
[0] 100 493
[0]  98 484
[0] 100 494
[0]  59 292
[0]  61 302
[0]  49 243
[0]  98 486
[0]  76 377
[0]  73 363
[0]  41 204
[0]  88 438
[0]  71 354
[0]  69 346
[0]  57 286
[0]  43 216
[0]  74 372
[0]  64 322
[0]  83 419
[0]  98 496
[0]  79 400
[0]  92 466
[0]  74 375
[0]  41 208
[0]  88 447
[0]  98 498
[0]  93 473
[0]  46 234
[0]  68 346
[0]  79 403
[0]  49 250
[0]  72 368
[0]  90 460
[0]  42 215
[0]  63 323
[0]  56 288
[0]  72 371
[0]  70 361
[0]  50 258
[0]  90 465
[0]  90 466
[0]  61 316
[0]  55 285
[0]  92 477
[0]  55 286
[0]  90 469
[0]  75 391
[0]  88 461
[0]  45 236
[0]  67 352
[0]  54 285
[0]  88 465
[0]  82 434
[0]  76 405
[0]  75 400
[0]  57 305
[0]  57 305
[0]  48 257
[0]  88 473
[0]  55 298
[0]  91 494
[0]  42 228
[0]  39 212
[0]  90 490
[0]  49 267
[0]  71 387
[0]  73 398
[0]  53 289
[0]  70 382
[0]  41 224
[0]  73 399
[0]  88 481
[0]  85 465
[0]  88 482
[0]  48 263
[0]  48 265
[0]  90 497
[0]  41 227
[0]  85 471
[0]  66 366
[0]  60 333
[0]  67 372
[0]  85 472
[0]  43 240
[0]  60 335
[0]  44 246
[0]  79 442
[0]  73 409
[0]  71 400
[0]  73 412
[0]  76 429
[0]  87 492
[0]  56 317
[0]  48 272
[0]  79 448
[0]  77 437
[0]  58 330
[0]  41 234
[0]  56 320
[0]  74 423
[0]  76 435
[0]  35 201
[0]  76 437
[0]  49 282
[0]  58 335
[0]  67 387
[0]  77 445
[0]  69 399
[0]  61 353
[0]  47 272
[0]  65 377
[0]  80 465
[0]  76 444
[0]  76 444
[0]  40 234
[0]  40 234
[0]  71 416
[0]  64 376
[0]  80 470
[0]  50 294
[0]  51 300
[0]  36 212
[0]  83 489
[0]  58 342
[0]  73 431
[0]  66 390
[0]  83 491
[0]  77 456
[0]  70 415
[0]  63 374
[0]  64 380
[0]  68 404
[0]  38 226
[0]  77 458
[0]  44 262
[0]  57 340
[0]  78 466
[0]  79 472
[0]  64 383
[0]  69 413
[0]  62 372
[0]  66 398
[0]  56 338
[0]  51 308
[0]  70 423
[0]  76 460
[0]  69 420
[0]  60 366
[0]  47 287
[0]  53 324
[0]  61 373
[0]  60 367
[0]  50 307
[0]  50 307
[0]  59 363
[0]  65 400
[0]  81 499
[0]  80 493
[0]  42 259
[0]  40 247
[0]  61 377
[0]  58 359
[0]  54 335
[0]  62 385
[0]  62 385
[0]  60 373
[0]  45 281
[0]  36 225
[0]  75 469
[0]  38 238
[0]  72 451
[0]  43 270
[0]  53 333
[0]  35 220
[0]  44 277
[0]  47 296
[0]  52 328
[0]  68 429
[0]  73 461
[0]  40 253
[0]  61 386
[0]  71 450
[0]  62 393
[0]  50 317
[0]  77 489
[0]  39 248
[0]  60 383
[0]  43 275
[0]  73 468
[0]  45 289
[0]  59 379
[0]  54 347
[0]  68 437
[0]  75 482
[0]  63 405
[0]  35 225
[0]  64 412
[0]  55 355
[0]  48 310
[0]  35 227
[0]  70 456
[0]  59 385
[0]  55 359
[0]  73 478
[0]  61 400
[0]  39 257
[0]  32 211
[0]  75 495
[0]  43 284
[0]  51 337
[0]  64 423
[0]  59 390
[0]  70 464
[0]  75 498
[0]  48 320
[0]  57 380
[0]  58 387
[0]  51 342
[0]  62 416
[0]  52 349
[0]  68 457
[0]  73 491
[0]  70 471
[0]  44 297
[0]  53 358
[0]  33 223
[0]  35 237
[0]  62 420
[0]  54 366
[0]  59 402
[0]  45 307
[0]  44 301
[0]  43 295
[0]  44 303
[0]  65 453
[0]  33 230
[0]  43 300
[0]  47 328
[0]  51 359
[0]  48 338
[0]  41 289
[0]  40 282
[0]  34 240
[0]  56 396
[0]  56 396
[0]  50 355
[0]  63 448
[0]  33 235
[0]  57 407
[0]  58 415
[0]  55 394
[0]  42 301
[0]  52 373
[0]  64 460
[0]  52 374
[0]  56 403
[0]  40 288
[0]  51 368
[0]  68 491
[0]  49 354
[0]  31 224
[0]  40 290
[0]  48 350
[0]  28 205
[0]  38 279
[0]  31 228
[0]  31 228
[0]  66 486
[0]  54 400
[0]  64 476
[0]  61 455
[0]  64 478
[0]  36 269
[0]  57 426
[0]  33 248
[0]  52 391
[0]  64 484
[0]  51 387
[0]  54 412
[0]  39 299
[0]  48 368
[0]  63 484
[0]  41 315
[0]  47 362
[0]  39 301
[0]  64 494
[0]  48 371
[0]  30 232
[0]  64 495
[0]  45 349
[0]  44 342
[0]  42 329
[0]  57 447
[0]  34 267
[0]  62 487
[0]  58 456
[0]  37 291
[0]  47 371
[0]  58 458
[0]  30 238
[0]  50 397
[0]  28 223
[0]  29 231
[0]  55 439
[0]  42 336
[0]  52 416
[0]  57 456
[0]  26 208
[0]  54 432
[0]  30 241
[0]  30 241
[0]  62 499
[0]  46 371
[0]  33 267
[0]  51 414
[0]  57 463
[0]  54 439
[0]  34 277
[0]  53 433
[0]  60 491
[0]  33 271
[0]  42 347
[0]  51 422
[0]  35 291
[0]  53 441
[0]  26 217
[0]  43 359
[0]  37 309
[0]  36 302
[0]  31 261
[0]  56 474
[0]  51 434
[0]  55 469
[0]  58 495
[0]  36 308
[0]  52 445
[0]  47 404
[0]  31 267
[0]  41 355
[0]  24 208
[0]  41 356
[0]  57 495
[0]  55 478
[0]  32 279
[0]  47 410
[0]  47 410
[0]  24 210
[0]  53 464
[0]  54 473
[0]  33 290
[0]  52 457
[0]  37 326
[0]  53 467
[0]  38 336
[0]  34 301
[0]  56 500
[0]  44 393
[0]  40 358
[0]  41 367
[0]  46 413
[0]  51 461
[0]  36 326
[0]  33 299
[0]  44 399
[0]  22 200
[0]  43 391
[0]  46 420
[0]  29 265
[0]  47 431
[0]  30 276
[0]  39 360
[0]  24 222
[0]  47 437
[0]  43 400
[0]  48 448
[0]  30 281
[0]  23 217
[0]  42 397
[0]  22 208
[0]  36 341
[0]  50 474
[0]  31 294
[0]  22 209
[0]  40 382
[0]  38 363
[0]  29 279
[0]  37 356
[0]  44 427
[0]  50 488
[0]  39 382
[0]  51 500
[0]  43 422
[0]  49 482
[0]  31 307
[0]  47 467
[0]  32 318
[0]  34 338
[0]  33 330
[0]  37 370
[0]  49 490
[0]  37 371
[0]  35 352
[0]  35 352
[0]  20 202
[0]  33 335
[0]  29 297
[0]  48 493
[0]  41 423
[0]  29 301
[0]  41 426
[0]  37 385
[0]  46 482
[0]  35 367
[0]  47 493
[0]  30 315
[0]  41 431
[0]  31 326
[0]  38 402
[0]  39 413
[0]  20 213
[0]  44 470
[0]  25 268
[0]  23 247
[0]  41 441
[0]  31 334
[0]  31 334
[0]  40 432
[0]  38 412
[0]  42 458
[0]  45 495
[0]  26 288
[0]  35 389
[0]  22 245
[0]  43 479
[0]  39 439
[0]  36 407
[0]  23 261
[0]  22 250
[0]  18 205
[0]  22 251
[0]  37 423
[0]  35 401
[0]  33 379
[0]  18 207
[0]  34 391
[0]  29 334
[0]  37 429
[0]  40 464
[0]  38 444
[0]  34 402
[0]  25 296
[0]  20 237
[0]  42 498
[0]  30 356
[0]  18 214
[0]  34 407
[0]  22 266
[0]  24 293
[0]  31 383
[0]  25 310
[0]  40 496
[0]  26 324
[0]  21 262
[0]  39 488
[0]  22 276
[0]  27 339
[0]  29 367
[0]  38 481
[0]  26 330
[0]  30 381
[0]  19 242
[0]  30 383
[0]  35 447
[0]  32 410
[0]  28 362
[0]  36 466
[0]  37 479
[0]  38 494
[0]  21 274
[0]  20 261
[0]  27 353
[0]  24 315
[0]  16 210
[0]  29 382
[0]  32 422
[0]  33 436
[0]  30 397
[0]  34 450
[0]  23 305
[0]  31 413
[0]  27 360
[0]  34 455
[0]  28 375
[0]  21 283
[0]  34 459
[0]  27 365
[0]  33 447
[0]  33 448
[0]  33 450
[0]  36 491
[0]  34 464
[0]  34 467
[0]  18 248
[0]  31 429
[0]  31 429
[0]  34 474
[0]  23 324
[0]  30 425
[0]  15 214
[0]  24 343
[0]  28 405
[0]  28 405
[0]  19 278
[0]  26 381
[0]  25 367
[0]  30 441
[0]  34 500
[0]  23 340
[0]  33 490
[0]  30 449
[0]  25 376
[0]  29 437
[0]  19 287
[0]  27 408
[0]  31 471
[0]  25 380
[0]  18 275
[0]  14 215
[0]  26 400
[0]  15 231
[0]  19 293
[0]  23 355
[0]  18 280
[0]  32 498
[0]  19 298
[0]  24 377
[0]  30 475
[0]  30 477
[0]  14 223
[0]  16 255
[0]  24 383
[0]  26 417
[0]  30 482
[0]  22 355
[0]  17 277
[0]  14 233
[0]  26 438
[0]  18 305
[0]  29 495
[0]  20 345
[0]  17 294
[0]  28 485
[0]  27 469
[0]  27 469
[0]  23 400
[0]  26 453
[0]  23 401
[0]  26 457
[0]  13 230
[0]  23 407
[0]  27 480
[0]  23 409
[0]  27 481
[0]  25 451
[0]  23 420
[0]  26 475
[0]  24 439
[0]  26 476
[0]  12 220
[0]  20 368
[0]  17 313
[0]  26 480
[0]  19 356
[0]  26 499
[0]  24 461
[0]  12 231
[0]  15 289
[0]  21 405
[0]  23 448
[0]  23 453
[0]  24 473
[0]  15 296
[0]  22 437
[0]  20 398
[0]  21 418
[0]  24 484
[0]  19 384
[0]  15 305
[0]  10 204
[0]  24 492
[0]  11 227
[0]  22 457
[0]  24 499
[0]  17 361
[0]  20 430
[0]  13 280
[0]  23 500
[0]  17 375
[0]  20 443
[0]  10 224
[0]  21 471
[0]  18 405
[0]  10 225
[0]  18 408
[0]  14 320
[0]  19 435
[0]  12 276
[0]  14 323
[0]  13 307
[0]  19 451
[0]  16 382
[0]  15 361
[0]  19 458
[0]  20 488
[0]  20 488
[0]  11 269
[0]  13 318
[0]  14 343
[0]  12 295
[0]  17 424
[0]  17 425
[0]  17 434
[0]  13 340
[0]  17 446
[0]  14 370
[0]  18 484
[0]  18 489
[0]  11 301
[0]  11 313
[0]  14 401
[0]  14 401
[0]  17 488
[0]  12 347
[0]  17 497
[0]  15 450
[0]  12 360
[0]  14 427
[0]  13 407
[0]  15 471
[0]  11 351
[0]  12 383
[0]  15 480
[0]  10 324
[0]  12 389
[0]  11 370
[0]  13 438
[0]  10 342
[0]  11 377
[0]  13 453
[0]  14 491
[0]  12 468
[0]  12 477
[0]  11 439
[0]  12 481
[0]  11 447
[0]  10 410
[0]  10 426
[0]  10 441
[0]  10 448
[0]  10 489
